(set-logic HORN)
(declare-datatypes ((Bool_0 0)) (((false_0 ) (true_0 ))))
(declare-fun diseqBool_0 (Bool_0 Bool_0) Bool)
(declare-fun not_0 (Bool_0 Bool_0) Bool)
(declare-datatypes ((Nat_0 0)) (((Z_0 ) (S_0 (projS_0 Nat_0)))))
(declare-datatypes ((list_0 0)) (((nil_0 ) (cons_0 (head_0 Nat_0) (tail_0 list_0)))))
(declare-fun barbar_0 (Bool_0 Bool_0 Bool_0) Bool)
(declare-fun x_1 (Bool_0 Nat_0 Nat_0) Bool)
(declare-fun elem_0 (Bool_0 Nat_0 list_0) Bool)
(declare-fun x_5 (Bool_0 Nat_0 Nat_0) Bool)
(declare-fun insert_0 (list_0 Nat_0 list_0) Bool)
(declare-fun x_9 (Bool_0 Nat_0 Nat_0) Bool)
(assert (diseqBool_0 false_0 true_0))
(assert (diseqBool_0 true_0 false_0))
(assert (not_0 true_0 false_0))
(assert (not_0 false_0 true_0))
(assert (forall ((y_0 Bool_0))
	(barbar_0 true_0 true_0 y_0)))
(assert (forall ((x_13 Bool_0) (x_0 Bool_0))
	(=> (diseqBool_0 x_0 true_0) (barbar_0 x_13 x_0 x_13))))
(assert (forall ((x_14 Bool_0) (y_2 Nat_0) (x_3 Nat_0))
	(=> (x_1 x_14 x_3 y_2) (x_1 x_14 (S_0 x_3) (S_0 y_2)))))
(assert (forall ((x_3 Nat_0))
	(x_1 false_0 (S_0 x_3) Z_0)))
(assert (forall ((z_1 Nat_0))
	(x_1 false_0 Z_0 (S_0 z_1))))
(assert (x_1 true_0 Z_0 Z_0))
(assert (forall ((x_19 Bool_0) (x_20 Bool_0) (x_21 Bool_0) (z_2 Nat_0) (xs_0 list_0) (x_4 Nat_0))
	(=> (and (x_1 x_20 x_4 z_2) (elem_0 x_21 x_4 xs_0) (barbar_0 x_19 x_20 x_21)) (elem_0 x_19 x_4 (cons_0 z_2 xs_0)))))
(assert (forall ((x_4 Nat_0))
	(elem_0 false_0 x_4 nil_0)))
(assert (forall ((x_24 Bool_0) (x_7 Nat_0) (z_3 Nat_0))
	(=> (x_5 x_24 z_3 x_7) (x_5 x_24 (S_0 z_3) (S_0 x_7)))))
(assert (forall ((z_3 Nat_0))
	(x_5 false_0 (S_0 z_3) Z_0)))
(assert (forall ((y_4 Nat_0))
	(x_5 true_0 Z_0 y_4)))
(assert (forall ((z_4 Nat_0) (xs_1 list_0) (x_8 Nat_0))
	(=> (x_5 true_0 x_8 z_4) (insert_0 (cons_0 x_8 (cons_0 z_4 xs_1)) x_8 (cons_0 z_4 xs_1)))))
(assert (forall ((x_32 list_0) (x_30 Bool_0) (z_4 Nat_0) (xs_1 list_0) (x_8 Nat_0))
	(=> (and (diseqBool_0 x_30 true_0) (insert_0 x_32 x_8 xs_1) (x_5 x_30 x_8 z_4)) (insert_0 (cons_0 z_4 x_32) x_8 (cons_0 z_4 xs_1)))))
(assert (forall ((x_8 Nat_0))
	(insert_0 (cons_0 x_8 nil_0) x_8 nil_0)))
(assert (forall ((x_34 Bool_0) (x_35 Bool_0) (x_10 Nat_0) (y_6 Nat_0))
	(=> (and (x_1 x_35 x_10 y_6) (not_0 x_34 x_35)) (x_9 x_34 x_10 y_6))))
(assert (forall ((x_36 list_0) (x_37 Bool_0) (x_38 Bool_0) (x_11 Nat_0) (y_7 Nat_0) (z_5 list_0))
	(=> (and (diseqBool_0 x_37 x_38) (x_9 true_0 x_11 y_7) (insert_0 x_36 y_7 z_5) (elem_0 x_37 x_11 x_36) (elem_0 x_38 x_11 z_5)) false)))
(check-sat)
(get-model)
